Route 1: 0 2 24 31 14 97 20 48 0
Route 2: 0 47 58 11 1 8 75 15 10 21 70 0
Route 3: 0 94 3 66 30 5 92 65 33 22 84 0
Route 4: 0 18 89 29 85 4 86 25 53 63 28 98 51 0
Route 5: 0 23 13 79 88 54 7 69 67 35 68 0
Route 6: 0 74 59 43 100 90 41 93 61 6 0
Route 7: 0 83 64 38 42 87 19 32 17 37 56 57 0
Route 8: 0 96 44 27 50 52 91 55 71 72 46 0
Route 9: 0 80 73 16 45 82 95 60 34 36 0
Route 10: 0 81 26 99 77 62 9 49 0
Route 11: 0 78 39 76 12 40 0
